c read Graph
c width = 123
c time = 199 ms
c width = 11
c time = 293 ms
c width = 10
c time = 353 ms
c width = 9
c time = 385 ms
c width = 9
c time = 4204 ms
s td 122 10 136
b 1 1 2 18
b 2 2 3 18 19
b 3 15 16 33 34
b 4 3 18 19 35
b 5 15 33 34 51
b 6 86 103 104 121
b 7 102 118 119 135
b 8 86 104 121 122
b 9 102 118 134 135
b 10 3 4 5 21
b 11 3 5 20 21 36 52
b 12 5 20 21 36 38 52 54
b 13 5 21 36 38 52 54 70
b 14 5 21 38 52 54 70 86
b 15 5 21 23 38 39 54 70 86
b 16 5 23 38 39 54 55 70 86
b 17 5 23 39 54 55 70 71 86
b 18 5 23 39 55 70 71 86 89 107 123
b 19 5 23 39 55 71 73 89 107 123
b 20 5 23 39 55 73 89 91 107 123
b 21 5 23 39 55 57 73 91 107 123
b 22 5 23 39 41 57 73 91 107 123
b 23 5 23 41 57 73 75 91 107 123
b 24 5 23 41 57 59 75 91 107 123
b 25 41 57 58 59 75
b 26 5 9 23 25 41 59 75 91 107 123
b 27 9 25 41 43 59 75 91 107 123
b 28 9 25 27 43 59 75 91 107 123
b 29 9 25 26 27 43
b 30 9 27 43 59 75 91 107 109 123 127
b 31 91 107 109 123 125 127
b 32 107 123 124 125
b 33 109 125 126 127
b 34 91 107 108 109 125
b 35 9 27 43 59 75 91 93 109 127
b 36 9 27 43 59 75 93 109 111 127
b 37 9 27 43 59 75 77 93 111 127
b 38 59 75 76 77 93
b 39 9 27 43 59 77 93 95 111 127
b 40 9 27 43 59 77 95 111 113 127 131
b 41 9 27 43 59 61 77 95 113 131
b 42 9 27 43 45 61 77 95 113 131
b 43 27 43 44 45 61
b 44 9 13 27 29 45 61 77 95 113 131
b 45 13 29 45 61 77 79 95 113 131
b 46 61 77 78 79 95
b 47 13 29 45 61 63 79 95 113 131
b 48 13 29 45 63 79 95 97 113 131
b 49 79 95 96 97 113
b 50 13 29 45 63 79 81 97 113 131
b 51 63 79 80 81 97
b 52 13 29 45 47 63 81 97 113 131
b 53 29 45 46 47 63
b 54 13 29 47 63 65 81 97 113 131
b 55 47 63 64 65 81
b 56 45 61 62 63 79
b 57 9 11 13 27 29 45
b 58 9 10 11 27
b 59 11 27 28 29 45
b 60 11 12 13 29
b 61 43 59 60 61 77
b 62 95 111 113 127 129 131
b 63 113 129 130 131
b 64 95 111 112 113 129
b 65 111 127 128 129
b 66 77 93 94 95 111
b 67 93 109 110 111 127
b 68 75 91 92 93 109
b 69 25 41 42 43 59
b 70 5 7 9 23 25 41
b 71 5 6 7 23
b 72 7 8 9 25
b 73 7 23 24 25 41
b 74 57 73 74 75 91
b 75 23 39 40 41 57
b 76 39 55 56 57 73
b 77 73 89 90 91 107
b 78 55 71 72 73 89
b 79 70 71 86 89 105 107 123
b 80 89 105 106 107 123
b 81 70 71 86 87 89 105 123
b 82 86 87 105 122 123
b 83 86 87 104 105 122
b 84 71 87 88 89 105
b 85 5 21 22 23 39
b 86 52 69 70 86
b 87 36 52 53 54 70
b 88 20 36 37 38 54
b 89 3 20 35 36 52
b 90 3 19 20 35 36
b 91 13 29 47 48 65 66 84 102
b 92 65 81 82 83 99
b 93 13 29 47 65 66 83 84 102
b 94 13 29 47 65 81 97 113 115 131
b 95 13 29 47 65 81 97 99 115 131
b 96 13 29 47 65 81 83 99 115 131
b 97 13 29 47 65 83 84 99 102 115 131
b 98 83 84 99 102 115 131 133
b 99 13 29 31 47 48 66 84 102
b 100 13 31 48 66 68 84 102
b 101 13 31 48 50 66 68 84
b 102 50 66 67 68 84
b 103 13 31 32 48 50 66 68
b 104 32 48 49 50 66
b 105 13 15 31 32 50 68
b 106 13 14 15 31
b 107 15 32 50 51 68
b 108 15 32 33 50 51
b 109 68 84 85 102
b 110 13 29 30 31 47
b 111 81 97 98 99 115
b 112 115 131 132 133
b 113 83 84 99 102 115 117 133
b 114 83 84 99 101 102 117 133
b 115 101 102 117 133 134
b 116 101 102 117 118 134
b 117 83 99 100 101 117
b 118 99 115 116 117 133
b 119 97 113 114 115 131
b 120 119 135 136
b 121 103 120 121
b 122 16 17 34
1 2
2 4
3 122
3 5
4 90
5 108
6 121
6 8
7 120
7 9
8 83
9 116
10 11
11 89
11 12
12 88
12 13
13 87
13 14
14 86
14 15
15 85
15 16
16 17
17 18
18 79
18 19
19 78
19 20
20 77
20 21
21 76
21 22
22 23
22 75
23 74
23 24
24 26
24 25
26 70
26 27
27 69
27 28
28 30
28 29
30 35
30 31
31 32
31 33
31 34
35 68
35 36
36 37
36 67
37 38
37 39
39 66
39 40
40 62
40 41
41 61
41 42
42 43
42 44
44 57
44 45
45 47
45 46
47 56
47 48
48 50
48 49
50 52
50 51
52 54
52 53
54 94
54 55
57 58
57 60
57 59
62 65
62 63
62 64
70 72
70 73
70 71
79 80
79 81
81 82
81 84
82 83
89 90
91 99
91 93
92 96
93 97
94 119
94 95
95 111
95 96
96 97
97 98
98 112
98 113
99 110
99 100
100 109
100 101
101 102
101 103
103 104
103 105
105 106
105 107
107 108
113 118
113 114
114 115
114 117
115 116
